Instance: E121-07c.dat
Class:  2
120 --- number of customers (no depot)
23 --- number of vehicles
183 --- number of items
Capacity - height - width of vehicles
   200     40     20
Node - x - y - demand  Readytime Duetime
  0.00   10.00  45.00   0.00 0       690.00
  1.00   25.00   1.00  25.00  64.00   99.00
  2.00   25.00   3.00   7.00  32.00   99.00
  3.00   31.00   5.00  13.00 170.00  196.00
  4.00   32.00   5.00   6.00 398.00  415.00
  5.00   31.00   7.00  14.00 233.00  263.00
  6.00   32.00   9.00   5.00  44.00   99.00
  7.00   34.00   9.00  11.00 506.00  536.00
  8.00   46.00   9.00  19.00 527.00  549.00
  9.00   35.00   7.00   5.00 499.00  516.00
 10.00   34.00   6.00  15.00  13.00   99.00
 11.00   35.00   5.00  15.00 551.00  570.00
 12.00   47.00   6.00  17.00  99.00  126.00
 13.00   40.00   5.00  13.00 561.00  588.00
 14.00   39.00   3.00  12.00 554.00  582.00
 15.00   36.00   3.00  18.00  84.00   99.00
 16.00   73.00   6.00  13.00 516.00  543.00
 17.00   73.00   8.00  18.00 496.00  512.00
 18.00   24.00  36.00  12.00 195.00  211.00
 19.00   76.00   6.00  17.00 177.00  204.00
 20.00   76.00  10.00   4.00 497.00  522.00
 21.00   76.00  13.00   7.00 155.00  179.00
 22.00   78.00   3.00  12.00  94.00  124.00
 23.00   78.00   9.00  13.00  82.00  100.00
 24.00   79.00   3.00   8.00 301.00  325.00
 25.00   79.00   5.00  16.00 454.00  479.00
 26.00   79.00  11.00  15.00 247.00  265.00
 27.00   82.00   3.00   6.00  21.00   99.00
 28.00   82.00   7.00   5.00 521.00  536.00
 29.00   90.00  15.00   9.00 394.00  420.00
 30.00   84.00   3.00  11.00 541.00  570.00
 31.00   84.00   5.00  10.00 176.00  206.00
 32.00   84.00   9.00   3.00 447.00  468.00
 33.00   85.00   1.00   7.00 273.00  293.00
 34.00   87.00   5.00   2.00 142.00  158.00
 35.00   85.00   8.00   4.00  14.00   99.00
 36.00   87.00   7.00   4.00  78.00   99.00
 37.00   86.00  41.00  18.00 236.00  264.00
 38.00   86.00  44.00  14.00  41.00   99.00
 39.00   86.00  46.00  12.00 246.00  263.00
 40.00   85.00  55.00  17.00 474.00  497.00
 41.00   89.00  43.00  20.00 503.00  529.00
 42.00   89.00  46.00  14.00 478.00  508.00
 43.00   89.00  52.00  16.00 351.00  372.00
 44.00   92.00  42.00  10.00 505.00  523.00
 45.00   92.00  52.00   9.00 225.00  254.00
 46.00   94.00  42.00  11.00  79.00  104.00
 47.00   94.00  44.00   7.00 389.00  407.00
 48.00   94.00  48.00  13.00 378.00  395.00
 49.00   96.00  42.00   5.00 298.00  323.00
 50.00   99.00  46.00   4.00 159.00  178.00
 51.00   99.00  50.00  21.00 431.00  460.00
 52.00   83.00  80.00  13.00 402.00  418.00
 53.00   83.00  83.00  11.00 357.00  387.00
 54.00   85.00  81.00  12.00 355.00  375.00
 55.00   85.00  85.00  14.00  24.00   99.00
 56.00   85.00  89.00  10.00 413.00  428.00
 57.00   87.00  80.00   8.00 264.00  282.00
 58.00   87.00  86.00  16.00 557.00  579.00
 59.00   90.00  77.00  19.00 132.00  152.00
 60.00   90.00  88.00   5.00 518.00  545.00
 61.00   93.00  82.00  17.00 209.00  225.00
 62.00   93.00  84.00   7.00 179.00  202.00
 63.00   93.00  89.00  16.00 170.00  195.00
 64.00   94.00  86.00  14.00 394.00  409.00
 65.00   95.00  80.00  17.00 327.00  346.00
 66.00   99.00  89.00  13.00 429.00  457.00
 67.00   37.00  83.00  17.00 393.00  409.00
 68.00   50.00  80.00  13.00 260.00  284.00
 69.00   35.00  85.00  14.00  91.00  112.00
 70.00   35.00  87.00  16.00  54.00   99.00
 71.00   44.00  86.00   7.00 231.00  250.00
 72.00   46.00  89.00  13.00  67.00   99.00
 73.00   46.00  83.00   9.00 423.00  451.00
 74.00   46.00  87.00  11.00 173.00  196.00
 75.00   46.00  89.00  35.00  25.00   99.00
 76.00   48.00  83.00   5.00 249.00  264.00
 77.00   50.00  85.00  28.00 134.00  164.00
 78.00   50.00  88.00   7.00 356.00  381.00
 79.00   54.00  86.00   3.00 282.00  299.00
 80.00   54.00  90.00  10.00  54.00   99.00
 81.00   10.00  35.00   7.00  50.00   99.00
 82.00   10.00  40.00  12.00 498.00  525.00
 83.00   18.00  30.00  11.00 301.00  321.00
 84.00   17.00  35.00  10.00 483.00  502.00
 85.00   16.00  38.00   8.00 346.00  374.00
 86.00   14.00  40.00  11.00  21.00   99.00
 87.00   15.00  42.00  21.00 101.00  128.00
 88.00   11.00  42.00   4.00  15.00   99.00
 89.00   18.00  40.00  15.00  23.00   99.00
 90.00   21.00  39.00  16.00  84.00  102.00
 91.00   20.00  40.00   4.00 530.00  552.00
 92.00   18.00  41.00  16.00 209.00  229.00
 93.00   20.00  44.00   7.00 128.00  155.00
 94.00   22.00  44.00  10.00 320.00  346.00
 95.00   16.00  45.00   9.00 415.00  439.00
 96.00   20.00  45.00  11.00 108.00  136.00
 97.00   25.00  45.00  17.00 317.00  335.00
 98.00   30.00  55.00  12.00 354.00  377.00
 99.00   20.00  50.00  11.00 451.00  471.00
100.00   22.00  51.00   7.00 492.00  518.00
101.00   18.00  49.00   9.00 104.00  124.00
102.00   16.00  48.00  11.00 195.00  210.00
103.00   20.00  55.00  12.00 137.00  157.00
104.00   18.00  53.00   7.00 314.00  341.00
105.00   14.00  50.00   8.00 246.00  267.00
106.00   15.00  51.00   6.00 357.00  382.00
107.00   16.00  54.00   5.00 294.00  322.00
108.00   28.00  33.00  12.00 161.00  188.00
109.00   33.00  38.00  13.00 505.00  533.00
110.00   30.00  50.00   7.00 528.00  544.00
111.00   13.00  40.00   7.00 423.00  451.00
112.00   15.00  36.00   8.00 223.00  238.00
113.00   18.00  31.00  11.00 195.00  220.00
114.00   25.00  37.00  13.00 449.00  471.00
115.00   30.00  46.00  11.00 385.00  408.00
116.00   25.00  52.00  10.00  88.00  106.00
117.00   16.00  33.00   7.00 229.00  246.00
118.00   25.00  35.00   4.00 113.00  128.00
119.00    5.00  40.00  20.00 340.00  367.00
120.00    5.00  50.00  13.00 515.00  534.00
Node - number of items - h - w for each item
    0   0
    1   2    6   13   13    2
    2   2    9    5   27    3
    3   2    4   15    9    7
    4   3    6   14   15    6    8    5
    5   2    8   15   10    4
    6   3    8   11   15    6   12    2
    7   2    7   11    8    5
    8   3    7   10   10    8   10    7
    9   2   32    3   17    3
   10   1   20    2
   11   3    4   16   11    7   25    4
   12   1    7    7
   13   3   30    4   15    4   30    3
   14   2    5   14    6    7
   15   2   20    3   15    2
   16   2   14    7   31    4
   17   2    5   13   20    3
   18   3   10    5   16    4   12    2
   19   2    5   12   17    3
   20   3   12    4   29    3   16    3
   21   2    5   13   11    7
   22   1    7    8
   23   2    5   13   12    7
   24   1    5   14
   25   2    8   14   12    5
   26   2    6   11   13    3
   27   1   20    2
   28   3   11    6   16    5   29    2
   29   2    5   10   31    4
   30   1   28    2
   31   2    6    9   24    2
   32   2   15    6   15    2
   33   1   14    4
   34   2   11    7    8    6
   35   2    8    8   12    5
   36   2    6   14   17    2
   37   3    5   14   27    4    9    4
   38   2    9    8   14    6
   39   2    8    7   20    3
   40   1    9    7
   41   2    4   13   17    3
   42   3    5   16   10    8   12    4
   43   2    4   10   14    5
   44   2    5   13   19    3
   45   3    5   14    7    7   16    6
   46   1    7    7
   47   3    6   10   16    7   31    3
   48   1    8    7
   49   1    6   16
   50   1   12    5
   51   1   20    3
   52   2   11    4   24    3
   53   2    5   15   28    4
   54   2   16    8   17    2
   55   3   11    8    5    7   12    2
   56   3    6    8   14    7   24    4
   57   2   11    7   29    3
   58   3    7   12   14    6   13    4
   59   2    7   14   14    6
   60   3    5   14    8    6   12    3
   61   1   10    4
   62   3   14    7   15    6   11    6
   63   2    4   13    5    9
   64   2    6   14   14    6
   65   3    7   11   11    7    9    7
   66   3    7   10    5    7    4    6
   67   2   14    8   24    3
   68   1   28    3
   69   3   11    7   16    6   22    2
   70   1    8   14
   71   2    6    6   32    2
   72   1    9    7
   73   2    8    7   22    3
   74   1   13    5
   75   2    7   16    5   13
   76   3    6   15   28    4   21    2
   77   2   15    3   13    2
   78   1   14    6
   79   1   14    4
   80   3   14    7    4    6   21    3
   81   1    5   11
   82   1   18    3
   83   2   14    3   15    2
   84   2   14    5   17    3
   85   1   16    7
   86   3    6   15    7   14    5   11
   87   1   13    6
   88   3    6   11   10    5   21    3
   89   3    6   12   13    6   28    4
   90   2    5   13    6   12
   91   1    8    6
   92   2   11    7    9    6
   93   3   15    7    6    7    6    7
   94   1    5    8
   95   2    7   14    7   13
   96   1   15    7
   97   2   17    4   17    3
   98   1   19    3
   99   1    8   11
  100   3    7    9   10    7   27    2
  101   3    8   15   16    6   16    5
  102   3    5   10   14    7   15    5
  103   1   13    3
  104   2    4    7   12    6
  105   1   28    3
  106   1    5    6
  107   1   25    3
  108   3    7   12   11    8   26    2
  109   2   24    3   16    3
  110   1   18    3
  111   3    6   11   15    8   13    4
  112   3    5   13    8   11   23    3
  113   3    7   15    8   10   12    2
  114   3   15    5   15    3   13    2
  115   3    6    8   15    5   30    3
  116   2    7    9   11    6
  117   3   15    7   27    4   30    3
  118   1    5   16
  119   3    5   11    8    8   15    6
  120   2   15    7   21    3
